32
0	0
1	1867
2	341
3	1869
4	1861
5	339
6	345
7	0
8	712
9	339
10	0
11	946
12	942
13	672
14	602
15	708
16	1376
17	1096
18	828
19	156
20	433
21	1866
22	1452
23	1187
24	1871
25	1383
26	1191
27	1702
28	1207
29	1383
30	1378
31	1873
